
Gurobi 9.1.2 (win64) logging started Tue Dec  7 12:44:42 2021

Gurobi Optimizer version 9.1.2 build v9.1.2rc0 (win64)
Thread count: 8 physical cores, 8 logical processors, using up to 8 threads
Optimize a model with 1 rows, 20 columns and 19 nonzeros
Model fingerprint: 0xf4d562a7
Variable types: 1 continuous, 19 integer (19 binary)
Coefficient statistics:
  Matrix range     [1e+00, 1e+01]
  Objective range  [1e+00, 1e+00]
  Bounds range     [4e+00, 4e+00]
  RHS range        [1e+01, 1e+01]
Presolve time: 0.00s
Presolved: 1 rows, 20 columns, 19 nonzeros
Variable types: 1 continuous, 19 integer (19 binary)

Root simplex log...

Iteration    Objective       Primal Inf.    Dual Inf.      Time
       0   -4.2386916e+00   1.133392e-01   0.000000e+00     14s
       3   -4.2386916e+00   0.000000e+00   0.000000e+00     14s

Root relaxation: objective -4.238692e+00, 3 iterations, 0.00 seconds

    Nodes    |    Current Node    |     Objective Bounds      |     Work
 Expl Unexpl |  Obj  Depth IntInf | Incumbent    BestBd   Gap | It/Node Time

     0     0   -4.23869    0    4          -   -4.23869      -     -   14s
H    0     0                       0.8075350   -4.23869   625%     -   14s
H    0     0                       0.6232493   -4.23869   780%     -   14s
*    0     0               0      -4.2386916   -4.23869  0.00%     -   14s

Cutting planes:
  Cover: 1
  MIR: 3
  Lazy constraints: 5

Explored 1 nodes (18 simplex iterations) in 14.52 seconds
Thread count was 8 (of 8 available processors)

Solution count 3: -4.23869 0.623249 0.807535 
No other solutions better than -4.23869

Optimal solution found (tolerance 1.00e-04)
Best objective -4.238691620380e+00, best bound -4.238691620380e+00, gap 0.0000%

User-callback calls 94, time in user-callback 18.31 sec
